Maximize
  0 x0 - 15 x1 + 0 x2 + 19 x3 + 49 x4 + 10 x5 + 0 x6 + 0 x7 + 0 x8 + 0 x9
   + 0 x10 + 0 x11 + 0 x12 - 11 x13 + 31 x14 + 36 x15 + 0 x16 + 0 x17
   + 0 x18 + 0 x19 + 0 x20 + 0 x21 - 11 x22 + 0 x23 + 35 x24 - 6 x25
   + 0 x26 + 34 x27 + 0 x28 + 3 x29 + 22 x30 + 0 x31 - 29 x32 + 0 x33
   + 0 x34 + 9 x35 - 29 x36 + 40 x37 + 14 x38 + 25 x39 + 43 x40 - 36 x41
   - 21 x42 + 11 x43 + 0 x44 + 0 x45 + 0 x46 - 43 x47 + 0 x48 + 21 x49 + [
   - 34 x0 ^2 + 6 x0 * x3 - 96 x0 * x5 + 86 x0 * x6 + 20 x0 * x7
   + 32 x0 * x10 - 20 x0 * x11 - 70 x0 * x14 - 40 x0 * x16 + 70 x0 * x18
   - 30 x0 * x19 - 52 x0 * x20 - 94 x0 * x21 - 46 x0 * x22 - 34 x0 * x29
   + 22 x0 * x31 + 72 x0 * x32 + 52 x0 * x33 - 42 x0 * x34 + 82 x0 * x36
   + 88 x0 * x37 - 18 x0 * x39 + 50 x0 * x40 - 52 x0 * x47 + 6 x0 * x48
   + 58 x0 * x49 - 16 x1 * x2 - 84 x1 * x3 + 4 x1 * x5 + 30 x1 * x10
   + 84 x1 * x11 - 64 x1 * x15 + 96 x1 * x17 - 48 x1 * x18 - 90 x1 * x19
   + 80 x1 * x20 - 84 x1 * x22 + 90 x1 * x23 - 78 x1 * x24 + 40 x1 * x25
   - 74 x1 * x28 - 16 x1 * x31 - 2 x1 * x32 + 28 x1 * x33 - 56 x1 * x35
   - 80 x1 * x36 - 82 x1 * x38 + 66 x1 * x39 - 84 x1 * x40 - 90 x1 * x46
   - 68 x1 * x48 - 70 x2 * x3 - 58 x2 * x6 - 58 x2 * x7 - 80 x2 * x9
   - 18 x2 * x10 - 26 x2 * x14 + 54 x2 * x15 - 80 x2 * x16 + 86 x2 * x22
   - 92 x2 * x23 - 68 x2 * x26 + 90 x2 * x27 + 20 x2 * x28 - 56 x2 * x31
   + 86 x2 * x34 - 16 x2 * x35 - 62 x2 * x36 - 36 x2 * x39 + 30 x2 * x40
   + 16 x2 * x41 - 4 x2 * x42 + 24 x2 * x44 - 68 x2 * x45 - 4 x2 * x46
   + 26 x2 * x48 - 10 x3 * x5 + 6 x3 * x6 + 44 x3 * x7 + 42 x3 * x10
   - 2 x3 * x11 - 30 x3 * x13 - 98 x3 * x16 - 98 x3 * x17 - 34 x3 * x18
   - 70 x3 * x20 - 98 x3 * x21 - 52 x3 * x22 + 36 x3 * x24 - 98 x3 * x28
   + 82 x3 * x29 + 76 x3 * x30 - 92 x3 * x33 - 12 x3 * x35 - 2 x3 * x36
   - 12 x3 * x38 + 68 x3 * x39 - 58 x3 * x40 + 24 x3 * x45 + 40 x3 * x48
   - 30 x3 * x49 + 22 x4 * x7 - 8 x4 * x8 + 88 x4 * x14 - 34 x4 * x15
   + 90 x4 * x16 - 12 x4 * x17 - 94 x4 * x20 + 24 x4 * x21 - 92 x4 * x28
   - 36 x4 * x32 + 22 x4 * x33 + 8 x4 * x35 + 30 x4 * x39 - 20 x4 * x43
   - 32 x4 * x44 - 94 x4 * x45 - 42 x4 * x46 - 82 x4 * x48 + 32 x4 * x49
   - 2 x5 * x8 + 34 x5 * x11 + 30 x5 * x12 + 92 x5 * x13 + 76 x5 * x15
   + 76 x5 * x25 + 44 x5 * x26 - 70 x5 * x27 - 90 x5 * x30 - 2 x5 * x31
   - 74 x5 * x33 + 28 x5 * x34 - 86 x5 * x35 + 38 x5 * x39 + 40 x5 * x41
   - 4 x5 * x43 - 94 x5 * x48 + 27 x6 ^2 - 86 x6 * x9 - 64 x6 * x10
   - 52 x6 * x11 + 22 x6 * x13 - 96 x6 * x16 - 68 x6 * x18 + 54 x6 * x19
   - 22 x6 * x20 + 86 x6 * x22 + 82 x6 * x24 - 26 x6 * x25 + 26 x6 * x28
   - 12 x6 * x30 - 46 x6 * x35 - 32 x6 * x36 - 6 x6 * x38 - 96 x6 * x40
   - 42 x6 * x41 + 10 x6 * x43 + 18 x6 * x44 - 20 x6 * x47 - 42 x7 * x10
   + 46 x7 * x12 - 18 x7 * x13 + 78 x7 * x16 - 74 x7 * x17 - 16 x7 * x20
   - 6 x7 * x21 - 36 x7 * x22 - 90 x7 * x24 + 20 x7 * x25 - 58 x7 * x27
   + 68 x7 * x30 - 62 x7 * x31 - 74 x7 * x32 - 80 x7 * x34 + 24 x7 * x37
   - 36 x7 * x40 - 88 x7 * x42 - 54 x7 * x43 + 22 x7 * x46 + 54 x7 * x48
   + 34 x8 * x11 + 58 x8 * x13 - 70 x8 * x14 + 50 x8 * x16 + 16 x8 * x20
   - 2 x8 * x21 - 98 x8 * x27 + 34 x8 * x30 + 2 x8 * x34 - 28 x8 * x35
   + 18 x8 * x36 + 20 x8 * x38 + 78 x8 * x42 - 40 x8 * x43 + 6 x8 * x45
   - 98 x8 * x47 + 80 x8 * x48 + 76 x9 * x10 - 52 x9 * x11 - 4 x9 * x12
   - 32 x9 * x16 + 84 x9 * x18 + 12 x9 * x24 + 86 x9 * x25 - 32 x9 * x26
   + 46 x9 * x29 + 4 x9 * x31 - 10 x9 * x33 + 32 x9 * x38 - 4 x9 * x40
   - 12 x9 * x42 - 28 x9 * x44 + 58 x9 * x47 - 94 x9 * x48 + 80 x9 * x49
   + 22 x10 * x11 + 80 x10 * x12 - 46 x10 * x13 - 24 x10 * x15
   + 80 x10 * x17 + 24 x10 * x19 - 32 x10 * x20 - 16 x10 * x21
   - 20 x10 * x22 - 68 x10 * x25 - 72 x10 * x26 + 38 x10 * x30
   + 32 x10 * x31 + 58 x10 * x33 + 28 x10 * x34 + 26 x10 * x35
   - 4 x10 * x36 + 22 x10 * x37 - 20 x10 * x38 - 34 x10 * x39
   - 34 x10 * x40 - 16 x10 * x42 - 32 x10 * x43 + 16 x10 * x48 + 31 x11 ^2
   + 78 x11 * x12 + 92 x11 * x13 - 76 x11 * x14 - 68 x11 * x22
   + 42 x11 * x23 + 12 x11 * x26 - 50 x11 * x29 + 14 x11 * x30
   - 16 x11 * x32 - 16 x11 * x37 - 86 x11 * x39 + 16 x11 * x41
   + 52 x11 * x44 + 68 x11 * x45 - 34 x11 * x46 + 14 x11 * x49
   - 46 x12 * x14 + 62 x12 * x16 + 54 x12 * x18 - 84 x12 * x21
   - 98 x12 * x23 - 34 x12 * x25 - 8 x12 * x27 - 62 x12 * x31
   + 48 x12 * x32 + 50 x12 * x34 - 72 x12 * x36 - 94 x12 * x37
   - 52 x12 * x38 + 48 x12 * x41 + 14 x12 * x42 + 28 x12 * x44
   - 84 x12 * x48 + 44 x12 * x49 + 33 x13 ^2 - 32 x13 * x14 - 38 x13 * x15
   - 88 x13 * x17 - 52 x13 * x19 + 30 x13 * x21 - 20 x13 * x22
   - 58 x13 * x28 - 72 x13 * x29 - 64 x13 * x30 - 78 x13 * x31
   - 40 x13 * x34 - 52 x13 * x37 + 40 x13 * x39 - 6 x13 * x40
   + 18 x13 * x42 - 44 x13 * x45 + 72 x13 * x46 - 82 x13 * x48
   + 32 x14 * x16 - 80 x14 * x17 - 94 x14 * x19 + 74 x14 * x20
   + 50 x14 * x22 - 46 x14 * x23 - 70 x14 * x24 - 42 x14 * x27
   - 70 x14 * x29 + 30 x14 * x33 - 42 x14 * x35 + 88 x14 * x36
   + 38 x14 * x38 - 98 x14 * x40 + 96 x14 * x41 + 32 x14 * x42
   - 48 x14 * x43 - 92 x14 * x44 + 56 x14 * x45 - 94 x14 * x49 - 44 x15 ^2
   - 60 x15 * x16 - 94 x15 * x17 + 22 x15 * x20 - 26 x15 * x21
   + 68 x15 * x22 + 26 x15 * x23 + 78 x15 * x24 + 80 x15 * x26
   - 46 x15 * x28 + 26 x15 * x29 + 86 x15 * x34 - 12 x15 * x35
   - 42 x15 * x37 + 50 x15 * x39 - 86 x15 * x40 - 66 x15 * x44
   + 76 x16 * x17 + 14 x16 * x19 + 40 x16 * x21 - 30 x16 * x22
   - 66 x16 * x24 - 12 x16 * x25 + 12 x16 * x26 - 28 x16 * x28
   + 28 x16 * x30 + 20 x16 * x32 + 74 x16 * x35 + 72 x16 * x39
   + 62 x16 * x40 - 58 x16 * x42 - 20 x16 * x43 - 40 x16 * x45
   + 56 x16 * x46 + 14 x16 * x47 - 28 x17 ^2 - 72 x17 * x19 + 30 x17 * x20
   - 54 x17 * x21 - 6 x17 * x25 - 56 x17 * x26 - 70 x17 * x29
   - 64 x17 * x30 - 94 x17 * x37 + 52 x17 * x40 + 82 x17 * x42
   + 28 x17 * x44 + 36 x17 * x47 + 60 x17 * x48 - 90 x17 * x49 - x18 ^2
   - 16 x18 * x19 - 94 x18 * x20 + 54 x18 * x21 + 56 x18 * x22
   - 78 x18 * x23 + 12 x18 * x24 - 42 x18 * x26 - 98 x18 * x27
   + 34 x18 * x28 + 48 x18 * x33 - 68 x18 * x34 - 64 x18 * x38
   + 88 x18 * x40 - 60 x18 * x41 + 84 x18 * x42 - 22 x18 * x43
   - 98 x18 * x45 - 26 x18 * x46 + 49 x19 ^2 - 8 x19 * x22 + 76 x19 * x23
   - 20 x19 * x33 + 46 x19 * x35 - 74 x19 * x38 - 32 x19 * x43
   - 78 x19 * x45 + 74 x19 * x47 + 82 x19 * x49 + 36 x20 * x22
   + 52 x20 * x25 + 30 x20 * x26 - 80 x20 * x28 + 88 x20 * x31
   - 94 x20 * x35 - 22 x20 * x36 + 12 x20 * x37 + 88 x20 * x38
   - 14 x20 * x40 - 70 x20 * x42 + 16 x20 * x45 - 50 x20 * x46
   - 46 x20 * x49 - 12 x21 * x23 + 52 x21 * x24 + 26 x21 * x26
   - 26 x21 * x29 - 8 x21 * x31 + 74 x21 * x33 + 84 x21 * x35
   - 34 x21 * x37 + 36 x21 * x38 + 92 x21 * x41 + 94 x21 * x45
   - 72 x21 * x47 - 76 x21 * x48 + 19 x22 ^2 - 34 x22 * x23 - 72 x22 * x24
   - 60 x22 * x26 + 12 x22 * x28 - 18 x22 * x29 - 60 x22 * x32
   + 82 x22 * x36 - 84 x22 * x37 + 98 x22 * x38 - 98 x22 * x41
   + 98 x22 * x43 + 2 x22 * x44 - 56 x22 * x47 + 54 x22 * x48 - 39 x23 ^2
   + 72 x23 * x26 - 44 x23 * x27 + 76 x23 * x29 - 32 x23 * x30
   + 92 x23 * x32 + 50 x23 * x34 + 26 x23 * x37 + 44 x23 * x38
   - 4 x23 * x39 - 20 x23 * x42 - 54 x23 * x46 - 8 x23 * x47 - 92 x23 * x49
   - 52 x24 * x26 - 42 x24 * x27 - 12 x24 * x28 - 92 x24 * x30
   - 32 x24 * x32 - 78 x24 * x36 + 56 x24 * x40 + 36 x24 * x43
   + 62 x24 * x44 + 84 x24 * x45 - 12 x24 * x46 - 64 x24 * x48 + 37 x25 ^2
   + 66 x25 * x26 + 30 x25 * x27 - 76 x25 * x32 - 14 x25 * x33
   + 86 x25 * x34 - 16 x25 * x38 - 32 x25 * x39 + 20 x25 * x40
   + 74 x25 * x42 - 24 x25 * x43 + 18 x25 * x44 + 20 x25 * x46
   - 46 x25 * x47 - 30 x25 * x49 - 11 x26 ^2 - 96 x26 * x27 - 88 x26 * x28
   + 68 x26 * x30 - 34 x26 * x31 + 50 x26 * x32 - 56 x26 * x33
   + 24 x26 * x34 + 80 x26 * x35 - 18 x26 * x40 - 52 x26 * x41
   - 68 x26 * x42 + 58 x26 * x49 + 14 x27 ^2 + 74 x27 * x28 + 6 x27 * x30
   - 16 x27 * x31 - 92 x27 * x34 + 90 x27 * x35 - 60 x27 * x38
   + 82 x27 * x41 - 64 x27 * x42 + 30 x27 * x43 + 26 x27 * x46
   + 20 x27 * x47 + 68 x27 * x49 - 94 x28 * x30 + 80 x28 * x31
   + 74 x28 * x34 - 30 x28 * x35 + 10 x28 * x36 + 18 x28 * x42
   + 12 x28 * x43 - 92 x28 * x45 + 76 x28 * x48 - 4 x29 * x31
   - 12 x29 * x32 + 20 x29 * x33 + 20 x29 * x35 + 84 x29 * x36
   - 10 x29 * x39 - 44 x29 * x44 + 82 x29 * x45 + 18 x29 * x46
   + 78 x29 * x48 - 60 x29 * x49 + 27 x30 ^2 + 64 x30 * x31 + 56 x30 * x32
   + 68 x30 * x33 - 76 x30 * x34 - 42 x30 * x35 - 56 x30 * x38
   + 42 x30 * x39 + 4 x30 * x41 - 2 x30 * x42 - 80 x30 * x44 - 54 x30 * x46
   - 70 x30 * x47 + 14 x30 * x48 + 80 x30 * x49 - 90 x31 * x33
   - 4 x31 * x35 + 56 x31 * x36 - 24 x31 * x39 - 46 x31 * x41
   - 66 x31 * x43 + 58 x31 * x44 + 4 x31 * x45 + 78 x31 * x46
   + 24 x31 * x48 + 18 x32 * x35 - 68 x32 * x37 - 40 x32 * x39
   - 64 x32 * x42 + 82 x32 * x44 - 68 x32 * x47 + 90 x32 * x48
   + 70 x32 * x49 - 90 x33 * x34 - 36 x33 * x35 + 36 x33 * x36
   - 94 x33 * x40 - 10 x33 * x41 - 90 x33 * x49 - 44 x34 ^2 + 34 x34 * x35
   + 80 x34 * x36 - 56 x34 * x38 - 24 x34 * x39 - 6 x34 * x42
   - 72 x34 * x44 - 98 x34 * x45 - 6 x34 * x46 + 36 x34 * x47
   + 62 x34 * x48 - 62 x35 * x39 - 68 x35 * x40 + 54 x35 * x42
   + 42 x35 * x43 - 72 x35 * x45 - 48 x35 * x47 - 12 x35 * x49 - 3 x36 ^2
   - 42 x36 * x39 - 4 x36 * x41 - 94 x36 * x45 + 96 x36 * x46
   - 78 x36 * x47 - 94 x36 * x49 + 4 x37 ^2 - 84 x37 * x38 - 26 x37 * x40
   + 88 x37 * x42 - 12 x37 * x43 + 66 x37 * x47 - 78 x37 * x49 + 5 x38 ^2
   + 46 x38 * x39 - 86 x38 * x41 + 30 x38 * x43 - 52 x38 * x44
   - 82 x38 * x46 - 62 x38 * x49 - 46 x39 * x41 - 46 x39 * x42
   + 30 x39 * x43 - 70 x39 * x44 + 20 x39 * x46 - 22 x39 * x47 + 12 x40 ^2
   + 92 x40 * x45 + 44 x40 * x47 - 6 x40 * x48 + 28 x40 * x49 - 34 x41 ^2
   - 68 x41 * x43 + 74 x41 * x45 + 4 x41 * x46 - 6 x41 * x47 + 6 x41 * x48
   - 52 x41 * x49 + 24 x42 * x43 + 38 x42 * x46 + 80 x42 * x47
   + 50 x42 * x48 + 16 x42 * x49 - 94 x43 * x45 - 98 x43 * x46
   + 72 x43 * x49 + 54 x44 * x45 - 12 x44 * x48 + 38 x45 ^2 + 60 x45 * x47
   - 48 x45 * x48 - 60 x45 * x49 + 28 x46 * x48 + 28 x47 ^2 - 10 x47 * x48
   - 6 x48 * x49 ] / 2 
Subject To
Bounds
 x0 <= 1
 x1 <= 1
 x2 <= 1
 x3 <= 1
 x4 <= 1
 x5 <= 1
 x6 <= 1
 x7 <= 1
 x8 <= 1
 x9 <= 1
 x10 <= 1
 x11 <= 1
 x12 <= 1
 x13 <= 1
 x14 <= 1
 x15 <= 1
 x16 <= 1
 x17 <= 1
 x18 <= 1
 x19 <= 1
 x20 <= 1
 x21 <= 1
 x22 <= 1
 x23 <= 1
 x24 <= 1
 x25 <= 1
 x26 <= 1
 x27 <= 1
 x28 <= 1
 x29 <= 1
 x30 <= 1
 x31 <= 1
 x32 <= 1
 x33 <= 1
 x34 <= 1
 x35 <= 1
 x36 <= 1
 x37 <= 1
 x38 <= 1
 x39 <= 1
 x40 <= 1
 x41 <= 1
 x42 <= 1
 x43 <= 1
 x44 <= 1
 x45 <= 1
 x46 <= 1
 x47 <= 1
 x48 <= 1
 x49 <= 1
End
